
# variable melt_steps equal 100000
# variable quench_steps equal 100000
# variable warm_steps equal 100000
# variable anneal_steps equal 100000
# variable cool_steps equal 100000

# variable Nfreq equal 100
# variable Nevery equal 100
# variable Nrepeat equal 0.001
# variable Ndump equal 1000

print "Melt  : 100000fs"
print "Quench: 100000fs"
print "Warm  : 100000fs"
print "Anneal: 100000fs"
print "Cool  : 100000fs"

log ./log.dat append

units metal     # mass = g/mole, distance = Å, time = ps, energy = eV, force = eV/Å
atom_style atomic
read_data /home/jbutch/Projects/Thesis/structures/example.extxyz
mass * 12.011   # all atoms are Carbon and therefore have mass ~12

pair_style quip
pair_coeff * * /home/jbutch/Projects/Thesis/data/carbon.xml "" 6

neigh_modify every 1 delay 0 check yes
timestep 0.001

variable nAtoms equal atoms

fix removeMomentum all momentum 1 linear 1 1 1

compute T all temp
fix TempAve all ave/time 100000 0.001 100 c_T

variable P equal press
fix PressAve all ave/time 100000 0.001 100 v_P

variable v equal vol
fix vAve all ave/time 100000 0.001 100 v_v

compute PE all pe pair

variable PE_Atom equal c_PE/v_nAtoms

fix PEAve_Atom all ave/time 100000 0.001 100 v_PE_Atom

compute MSD all msd

thermo_style custom step cpu temp f_TempAve press f_PressAve f_PEAve_Atom vol f_vAve c_MSD[4]
thermo_modify flush yes
thermo 100000

dump traj all atom 100000 /home/jbutch/Projects/Thesis/dump_file.dump.*.dat

velocity all create 9000 42

run 0

# Trajectory Phases
# Phase 1: Melt
fix integrate all nvt temp 9000 9000 0.1
run 100000
unfix integrate

# Phase 2: Quench
fix integrate all nvt temp 9000 3000 0.1
run 100000 
unfix integrate

# Phase 3: Warm
fix integrate all nvt temp 3000 500 0.1
run 100000 
unfix integrate

# Phase 4: Anneal
fix integrate all nvt temp 500 500 0.1
run 100000 
unfix integrate

# Phase 5: Cool
fix integrate all nvt temp 500 300 0.1
run 100000
unfix integrate

